;; produced by z3_gnatprove.drv ;;
(set-info :source |VC generated by SPARK 2014|)
(set-info :smt-lib-version 2.0)
(set-info :category industrial)
(set-info :status unknown)
(set-option :smt.mbqi false)
(set-option :smt.macro-finder true)
;;; generated by SMT-LIB2 driver
;;; SMT-LIB2 driver: bit-vectors, common part
;;; SMT-LIB2: integer arithmetic
(declare-datatypes () ((tuple0 (Tuple0))))
(declare-sort us_private 0)

(declare-fun private__bool_eq (us_private us_private) Bool)

(declare-const us_null_ext__ us_private)

(declare-sort us_type_of_heap 0)

(declare-datatypes ()
((us_type_of_heap__ref
 (mk___type_of_heap__ref (us_type_of_heap__content us_type_of_heap)))))
(declare-sort us_image 0)

(declare-datatypes () ((int__ref (mk_int__ref (int__content Int)))))
(declare-datatypes () ((bool__ref (mk_bool__ref (bool__content Bool)))))
(declare-datatypes () ((real__ref (mk_real__ref (real__content Real)))))
(declare-datatypes ()
((us_private__ref (mk___private__ref (us_private__content us_private)))))
(define-fun int__ref___projection ((a int__ref)) Int (int__content a))

(define-fun bool__ref___projection ((a bool__ref)) Bool (bool__content a))

(define-fun real__ref___projection ((a real__ref)) Real (real__content a))

(define-fun us_private__ref___projection ((a us_private__ref)) us_private
  (us_private__content a))

(declare-fun nth ((_ BitVec 8) Int) Bool)

(declare-fun lsr ((_ BitVec 8) Int) (_ BitVec 8))

(declare-fun asr ((_ BitVec 8) Int) (_ BitVec 8))

(declare-fun lsl ((_ BitVec 8) Int) (_ BitVec 8))

(declare-fun rotate_right1 ((_ BitVec 8) Int) (_ BitVec 8))

(declare-fun rotate_left1 ((_ BitVec 8) Int) (_ BitVec 8))

(declare-fun pow2 (Int) Int)

(define-fun to_int1 ((x (_ BitVec 8))) Int (ite (bvsge x (_ bv0 8))
                                           (bv2int x) (- (- 256 (bv2int x)))))

(define-fun uint_in_range ((i Int)) Bool (and (<= 0 i) (<= i 255)))

(declare-fun nth_bv ((_ BitVec 8) (_ BitVec 8)) Bool)

(declare-fun eq_sub_bv ((_ BitVec 8) (_ BitVec 8) (_ BitVec 8)
  (_ BitVec 8)) Bool)

(define-fun eq_sub ((a (_ BitVec 8)) (b (_ BitVec 8)) (i Int)
  (n Int)) Bool (forall ((j Int))
                (=> (and (<= i j) (< j (+ i n))) (= (nth a j) (nth b j)))))

(declare-datatypes () ((t__ref (mk_t__ref (t__content (_ BitVec 8))))))
(declare-fun power ((_ BitVec 8) Int) (_ BitVec 8))

(define-fun bv_min ((x (_ BitVec 8))
  (y (_ BitVec 8))) (_ BitVec 8) (ite (bvule x y) x y))

(define-fun bv_max ((x (_ BitVec 8))
  (y (_ BitVec 8))) (_ BitVec 8) (ite (bvule x y) y x))

(declare-fun nth1 ((_ BitVec 16) Int) Bool)

(declare-fun lsr1 ((_ BitVec 16) Int) (_ BitVec 16))

(declare-fun asr1 ((_ BitVec 16) Int) (_ BitVec 16))

(declare-fun lsl1 ((_ BitVec 16) Int) (_ BitVec 16))

(declare-fun rotate_right2 ((_ BitVec 16) Int) (_ BitVec 16))

(declare-fun rotate_left2 ((_ BitVec 16) Int) (_ BitVec 16))

(define-fun to_int2 ((x (_ BitVec 16))) Int (ite (bvsge x (_ bv0 16))
                                            (bv2int x)
                                            (- (- 65536 (bv2int x)))))

(define-fun uint_in_range1 ((i Int)) Bool (and (<= 0 i) (<= i 65535)))

(declare-fun nth_bv1 ((_ BitVec 16) (_ BitVec 16)) Bool)

(declare-fun eq_sub_bv1 ((_ BitVec 16) (_ BitVec 16) (_ BitVec 16)
  (_ BitVec 16)) Bool)

(define-fun eq_sub1 ((a (_ BitVec 16)) (b (_ BitVec 16)) (i Int)
  (n Int)) Bool (forall ((j Int))
                (=> (and (<= i j) (< j (+ i n))) (= (nth1 a j) (nth1 b j)))))

(declare-datatypes () ((t__ref1 (mk_t__ref1 (t__content1 (_ BitVec 16))))))
(declare-fun power1 ((_ BitVec 16) Int) (_ BitVec 16))

(define-fun bv_min1 ((x (_ BitVec 16))
  (y (_ BitVec 16))) (_ BitVec 16) (ite (bvule x y) x y))

(define-fun bv_max1 ((x (_ BitVec 16))
  (y (_ BitVec 16))) (_ BitVec 16) (ite (bvule x y) y x))

(declare-sort integer 0)

(define-fun in_range ((x Int)) Bool (and (<= (- 2147483648) x)
                                    (<= x 2147483647)))

(declare-fun attr__ATTRIBUTE_IMAGE (Int) us_image)

(declare-fun attr__ATTRIBUTE_VALUE__pre_check (us_image) Bool)

(declare-fun attr__ATTRIBUTE_VALUE (us_image) Int)

(declare-fun user_eq (integer integer) Bool)

(declare-const dummy integer)

(declare-datatypes ()
((integer__ref (mk_integer__ref (integer__content integer)))))
(define-fun integer__ref___projection ((a integer__ref)) integer (integer__content
                                                                 a))

(declare-fun to_rep (integer) Int)

(declare-fun of_rep (Int) integer)

;; inversion_axiom
  (assert
  (forall ((x integer)) (! (= (of_rep (to_rep x)) x) :pattern ((to_rep x)) )))

;; range_axiom
  (assert
  (forall ((x integer)) (! (in_range (to_rep x)) :pattern ((to_rep x)) )))

;; coerce_axiom
  (assert
  (forall ((x Int))
  (! (=> (in_range x) (= (to_rep (of_rep x)) x)) :pattern ((to_rep
                                                           (of_rep x))) )))

(declare-sort natural 0)

(define-fun in_range1 ((x Int)) Bool (and (<= 0 x) (<= x 2147483647)))

(declare-fun attr__ATTRIBUTE_IMAGE1 (Int) us_image)

(declare-fun attr__ATTRIBUTE_VALUE__pre_check1 (us_image) Bool)

(declare-fun attr__ATTRIBUTE_VALUE1 (us_image) Int)

(declare-fun user_eq1 (natural natural) Bool)

(declare-const dummy1 natural)

(declare-datatypes ()
((natural__ref (mk_natural__ref (natural__content natural)))))
(define-fun natural__ref___projection ((a natural__ref)) natural (natural__content
                                                                 a))

(declare-sort bits_8 0)

(declare-const attr__ATTRIBUTE_MODULUS (_ BitVec 8))

(declare-fun attr__ATTRIBUTE_IMAGE2 ((_ BitVec 8)) us_image)

(declare-fun attr__ATTRIBUTE_VALUE__pre_check2 (us_image) Bool)

(declare-fun attr__ATTRIBUTE_VALUE2 (us_image) (_ BitVec 8))

(declare-fun user_eq2 (bits_8 bits_8) Bool)

(declare-const dummy2 bits_8)

(declare-datatypes ()
((bits_8__ref (mk_bits_8__ref (bits_8__content bits_8)))))
(define-fun bits_8__ref___projection ((a bits_8__ref)) bits_8 (bits_8__content
                                                              a))

(declare-fun to_rep1 (bits_8) (_ BitVec 8))

(declare-fun of_rep1 ((_ BitVec 8)) bits_8)

;; inversion_axiom
  (assert
  (forall ((x bits_8))
  (! (= (of_rep1 (to_rep1 x)) x) :pattern ((to_rep1 x)) )))

;; range_axiom
  (assert true)

;; coerce_axiom
  (assert
  (forall ((x (_ BitVec 8)))
  (! (= (to_rep1 (of_rep1 x)) x) :pattern ((to_rep1 (of_rep1 x))) )))

(define-fun to_int3 ((x bits_8)) Int (bv2int (to_rep1 x)))

;; range_int_axiom
  (assert
  (forall ((x bits_8)) (! (uint_in_range
  (to_int3 x)) :pattern ((to_int3 x)) )))

(declare-datatypes ()
((map__ref (mk_map__ref (map__content (Array Int bits_8))))))
(declare-fun slide ((Array Int bits_8) Int Int) (Array Int bits_8))

;; slide_eq
  (assert
  (forall ((a (Array Int bits_8)))
  (forall ((first Int))
  (! (= (slide a first first) a) :pattern ((slide a first first)) ))))

;; slide_def
  (assert
  (forall ((a (Array Int bits_8)))
  (forall ((old_first Int))
  (forall ((new_first Int))
  (forall ((i Int))
  (! (= (select (slide a old_first new_first) i) (select a (- i (- new_first old_first)))) :pattern ((select
  (slide a old_first new_first) i)) ))))))

(declare-fun concat1 ((Array Int bits_8) Int Int (Array Int bits_8) Int
  Int) (Array Int bits_8))

;; concat_def
  (assert
  (forall ((a (Array Int bits_8)) (b (Array Int bits_8)))
  (forall ((a_first Int) (a_last Int) (b_first Int) (b_last Int))
  (forall ((i Int))
  (! (and
     (=> (and (<= a_first i) (<= i a_last))
     (= (select (concat1 a a_first a_last b b_first b_last) i) (select a i)))
     (=> (< a_last i)
     (= (select (concat1 a a_first a_last b b_first b_last) i) (select b (+ (- i a_last) (- b_first 1)))))) :pattern ((select
  (concat1 a a_first a_last b b_first b_last) i)) )))))

(declare-fun singleton1 (bits_8 Int) (Array Int bits_8))

;; singleton_def
  (assert
  (forall ((v bits_8))
  (forall ((i Int))
  (! (= (select (singleton1 v i) i) v) :pattern ((select (singleton1 v i) i)) ))))

(define-fun bool_eq ((a (Array Int bits_8)) (a__first Int) (a__last Int)
  (b (Array Int bits_8)) (b__first Int)
  (b__last Int)) Bool (ite (and
                           (ite (<= a__first a__last)
                           (and (<= b__first b__last)
                           (= (- a__last a__first) (- b__last b__first)))
                           (< b__last b__first))
                           (forall ((temp___idx_132 Int))
                           (=>
                           (and (<= a__first temp___idx_132)
                           (<= temp___idx_132 a__last))
                           (= (to_rep1 (select a temp___idx_132)) (to_rep1
                                                                  (select b (+ (- b__first a__first) temp___idx_132)))))))
                      true false))

;; bool_eq_rev
  (assert
  (forall ((a (Array Int bits_8)) (b (Array Int bits_8)))
  (forall ((a__first Int) (a__last Int) (b__first Int) (b__last Int))
  (=> (= (bool_eq b b__first b__last a a__first a__last) true)
  (and
  (ite (<= a__first a__last)
  (and (<= b__first b__last) (= (- a__last a__first) (- b__last b__first)))
  (< b__last b__first))
  (forall ((temp___idx_132 Int))
  (=> (and (<= a__first temp___idx_132) (<= temp___idx_132 a__last))
  (= (to_rep1 (select a temp___idx_132)) (to_rep1
                                         (select b (+ (- b__first a__first) temp___idx_132)))))))))))

(declare-fun compare ((Array Int bits_8) Int Int (Array Int bits_8) Int
  Int) Int)

;; compare_def_eq
  (assert
  (forall ((a (Array Int bits_8)) (b (Array Int bits_8)))
  (forall ((a_first Int) (a_last Int) (b_first Int) (b_last Int))
  (! (= (= (compare a a_first a_last b b_first b_last) 0)
     (= (bool_eq a a_first a_last b b_first b_last) true)) :pattern (
  (compare a a_first a_last b b_first b_last)) ))))

;; compare_def_lt
  (assert
  (forall ((a (Array Int bits_8)) (b (Array Int bits_8)))
  (forall ((a_first Int) (a_last Int) (b_first Int) (b_last Int))
  (! (= (< (compare a a_first a_last b b_first b_last) 0)
     (exists ((i Int) (j Int))
     (and (<= i a_last)
     (and (< j b_last)
     (and (= (bool_eq a a_first i b b_first j) true)
     (or (= i a_last)
     (and (< i a_last)
     (bvult (to_rep1 (select a (+ i 1))) (to_rep1 (select b (+ j 1))))))))))) :pattern (
  (compare a a_first a_last b b_first b_last)) ))))

;; compare_def_gt
  (assert
  (forall ((a (Array Int bits_8)) (b (Array Int bits_8)))
  (forall ((a_first Int) (a_last Int) (b_first Int) (b_last Int))
  (! (= (< 0 (compare a a_first a_last b b_first b_last))
     (exists ((i Int) (j Int))
     (and (<= i b_last)
     (and (< j a_last)
     (and (= (bool_eq a a_first j b b_first i) true)
     (or (= i b_last)
     (and (< i b_last)
     (bvugt (to_rep1 (select a (+ j 1))) (to_rep1 (select b (+ i 1))))))))))) :pattern (
  (compare a a_first a_last b b_first b_last)) ))))

(declare-sort t 0)

(declare-fun first (t) integer)

(declare-fun last (t) integer)

(declare-fun mk (Int Int) t)

;; mk_def
  (assert
  (forall ((f Int) (l Int))
  (! (=> (in_range f)
     (=> (in_range l)
     (and (= (to_rep (first (mk f l))) f) (= (to_rep (last (mk f l))) l)))) :pattern (
  (mk f l)) )))

(define-fun dynamic_property ((range_first Int) (range_last Int) (low Int)
  (high Int)) Bool (and (in_range low)
                   (and (in_range high)
                   (=> (<= low high) (and (in_range1 low) (in_range1 high))))))

(declare-datatypes () ((us_t (mk___t (elts (Array Int bits_8))(rt t)))))
(define-fun to_array ((a us_t)) (Array Int bits_8) (elts a))

(define-fun of_array ((a (Array Int bits_8)) (f Int)
  (l Int)) us_t (mk___t a (mk f l)))

(define-fun first1 ((a us_t)) Int (to_rep (first (rt a))))

(define-fun last1 ((a us_t)) Int (to_rep (last (rt a))))

(define-fun length ((a us_t)) Int (ite (<= (first1 a) (last1 a))
                                  (+ (- (last1 a) (first1 a)) 1) 0))

(declare-const value__size Int)

(declare-fun object__size ((Array Int bits_8)) Int)

(declare-const value__component__size Int)

(declare-fun object__component__size ((Array Int bits_8)) Int)

(declare-const value__alignment Int)

(declare-fun object__alignment ((Array Int bits_8)) Int)

;; value__size_axiom
  (assert (<= 0 value__size))

;; object__size_axiom
  (assert (forall ((a (Array Int bits_8))) (<= 0 (object__size a))))

;; value__component__size_axiom
  (assert (<= 0 value__component__size))

;; object__component__size_axiom
  (assert
  (forall ((a (Array Int bits_8))) (<= 0 (object__component__size a))))

;; value__alignment_axiom
  (assert (<= 0 value__alignment))

;; object__alignment_axiom
  (assert (forall ((a (Array Int bits_8))) (<= 0 (object__alignment a))))

(define-fun bool_eq1 ((x us_t)
  (y us_t)) Bool (bool_eq (elts x) (to_rep (first (rt x)))
                 (to_rep (last (rt x))) (elts y) (to_rep (first (rt y)))
                 (to_rep (last (rt y)))))

(declare-fun user_eq3 (us_t us_t) Bool)

(declare-const dummy3 us_t)

(declare-datatypes ()
((byte_array__ref (mk_byte_array__ref (byte_array__content us_t)))))
(define-fun byte_array__ref___projection ((a byte_array__ref)) us_t (byte_array__content
                                                                    a))

(declare-fun nth2 ((_ BitVec 32) Int) Bool)

(declare-fun lsr2 ((_ BitVec 32) Int) (_ BitVec 32))

(declare-fun asr2 ((_ BitVec 32) Int) (_ BitVec 32))

(declare-fun lsl2 ((_ BitVec 32) Int) (_ BitVec 32))

(declare-fun rotate_right3 ((_ BitVec 32) Int) (_ BitVec 32))

(declare-fun rotate_left3 ((_ BitVec 32) Int) (_ BitVec 32))

(define-fun to_int4 ((x (_ BitVec 32))) Int (ite (bvsge x (_ bv0 32))
                                            (bv2int x)
                                            (- (- 4294967296 (bv2int x)))))

(define-fun uint_in_range2 ((i Int)) Bool (and (<= 0 i) (<= i 4294967295)))

(declare-fun nth_bv2 ((_ BitVec 32) (_ BitVec 32)) Bool)

(declare-fun eq_sub_bv2 ((_ BitVec 32) (_ BitVec 32) (_ BitVec 32)
  (_ BitVec 32)) Bool)

(define-fun eq_sub2 ((a (_ BitVec 32)) (b (_ BitVec 32)) (i Int)
  (n Int)) Bool (forall ((j Int))
                (=> (and (<= i j) (< j (+ i n))) (= (nth2 a j) (nth2 b j)))))

(declare-datatypes () ((t__ref2 (mk_t__ref2 (t__content2 (_ BitVec 32))))))
(declare-fun power2 ((_ BitVec 32) Int) (_ BitVec 32))

(define-fun bv_min2 ((x (_ BitVec 32))
  (y (_ BitVec 32))) (_ BitVec 32) (ite (bvule x y) x y))

(define-fun bv_max2 ((x (_ BitVec 32))
  (y (_ BitVec 32))) (_ BitVec 32) (ite (bvule x y) y x))

(declare-sort bits_6 0)

(define-fun in_range2 ((x (_ BitVec 8))) Bool (and (bvule ((_ int2bv 8) 0) x)
                                              (bvule x ((_ int2bv 8) 63))))

(define-fun in_range_int ((x Int)) Bool (and (<= 0 x) (<= x 63)))

(declare-fun attr__ATTRIBUTE_IMAGE3 ((_ BitVec 8)) us_image)

(declare-fun attr__ATTRIBUTE_VALUE__pre_check3 (us_image) Bool)

(declare-fun attr__ATTRIBUTE_VALUE3 (us_image) (_ BitVec 8))

(declare-fun user_eq4 (bits_6 bits_6) Bool)

(declare-const dummy4 bits_6)

(declare-datatypes ()
((bits_6__ref (mk_bits_6__ref (bits_6__content bits_6)))))
(define-fun bits_6__ref___projection ((a bits_6__ref)) bits_6 (bits_6__content
                                                              a))

(declare-fun to_rep2 (bits_6) (_ BitVec 8))

(declare-fun of_rep2 ((_ BitVec 8)) bits_6)

;; inversion_axiom
  (assert
  (forall ((x bits_6))
  (! (= (of_rep2 (to_rep2 x)) x) :pattern ((to_rep2 x)) )))

;; range_axiom
  (assert
  (forall ((x bits_6)) (! (in_range2 (to_rep2 x)) :pattern ((to_rep2 x)) )))

;; coerce_axiom
  (assert
  (forall ((x (_ BitVec 8)))
  (! (let ((y (bvurem x ((_ int2bv 8) 64))))
     (=> (in_range2 y) (= (to_rep2 (of_rep2 x)) y))) :pattern ((to_rep2
                                                               (of_rep2 x))) )))

(define-fun to_int5 ((x bits_6)) Int (bv2int (to_rep2 x)))

;; range_int_axiom
  (assert
  (forall ((x bits_6)) (! (in_range_int
  (to_int5 x)) :pattern ((to_int5 x)) )))

(declare-sort bits_26 0)

(define-fun in_range3 ((x (_ BitVec 32))) Bool (and
                                               (bvule ((_ int2bv 32) 0) x)
                                               (bvule x ((_ int2bv 32) 67108863))))

(define-fun in_range_int1 ((x Int)) Bool (and (<= 0 x) (<= x 67108863)))

(declare-fun attr__ATTRIBUTE_IMAGE4 ((_ BitVec 32)) us_image)

(declare-fun attr__ATTRIBUTE_VALUE__pre_check4 (us_image) Bool)

(declare-fun attr__ATTRIBUTE_VALUE4 (us_image) (_ BitVec 32))

(declare-fun user_eq5 (bits_26 bits_26) Bool)

(declare-const dummy5 bits_26)

(declare-datatypes ()
((bits_26__ref (mk_bits_26__ref (bits_26__content bits_26)))))
(define-fun bits_26__ref___projection ((a bits_26__ref)) bits_26 (bits_26__content
                                                                 a))

(declare-fun to_rep3 (bits_26) (_ BitVec 32))

(declare-fun of_rep3 ((_ BitVec 32)) bits_26)

;; inversion_axiom
  (assert
  (forall ((x bits_26))
  (! (= (of_rep3 (to_rep3 x)) x) :pattern ((to_rep3 x)) )))

;; range_axiom
  (assert
  (forall ((x bits_26)) (! (in_range3 (to_rep3 x)) :pattern ((to_rep3 x)) )))

;; coerce_axiom
  (assert
  (forall ((x (_ BitVec 32)))
  (! (let ((y (bvurem x ((_ int2bv 32) 67108864))))
     (=> (in_range3 y) (= (to_rep3 (of_rep3 x)) y))) :pattern ((to_rep3
                                                               (of_rep3 x))) )))

(define-fun to_int6 ((x bits_26)) Int (bv2int (to_rep3 x)))

;; range_int_axiom
  (assert
  (forall ((x bits_26)) (! (in_range_int1
  (to_int6 x)) :pattern ((to_int6 x)) )))

(declare-datatypes ()
((us_split_fields
 (mk___split_fields
 (rec__dw1000__register_types__ec_golp_type__offset_ext bits_6)(rec__dw1000__register_types__ec_golp_type__reserved bits_26)))))
(define-fun us_split_fields_OFFSET_EXT__projection ((a us_split_fields)) bits_6
  (rec__dw1000__register_types__ec_golp_type__offset_ext a))

(define-fun us_split_fields_Reserved__6__projection ((a us_split_fields)) bits_26
  (rec__dw1000__register_types__ec_golp_type__reserved a))

(declare-datatypes ()
((us_split_fields__ref
 (mk___split_fields__ref (us_split_fields__content us_split_fields)))))
(define-fun us_split_fields__ref___33__projection ((a us_split_fields__ref)) us_split_fields
  (us_split_fields__content a))

(declare-datatypes ()
((us_rep (mk___rep (us_split_fields1 us_split_fields)))))
(define-fun us_rep___33__projection ((a us_rep)) us_split_fields (us_split_fields1
                                                                 a))

(define-fun bool_eq2 ((a us_rep)
  (b us_rep)) Bool (ite (and
                        (= (to_rep2
                           (rec__dw1000__register_types__ec_golp_type__offset_ext
                           (us_split_fields1 a))) (to_rep2
                                                  (rec__dw1000__register_types__ec_golp_type__offset_ext
                                                  (us_split_fields1 b))))
                        (= (to_rep3
                           (rec__dw1000__register_types__ec_golp_type__reserved
                           (us_split_fields1 a))) (to_rep3
                                                  (rec__dw1000__register_types__ec_golp_type__reserved
                                                  (us_split_fields1 b)))))
                   true false))

(declare-const value__size1 Int)

(declare-fun object__size1 (us_rep) Int)

(declare-const value__alignment1 Int)

(declare-fun object__alignment1 (us_rep) Int)

;; value__size_axiom
  (assert (<= 0 value__size1))

;; object__size_axiom
  (assert (forall ((a us_rep)) (<= 0 (object__size1 a))))

;; value__alignment_axiom
  (assert (<= 0 value__alignment1))

;; object__alignment_axiom
  (assert (forall ((a us_rep)) (<= 0 (object__alignment1 a))))

(declare-const dw1000__register_types__ec_golp_type__offset_ext__first__bit Int)

(declare-const dw1000__register_types__ec_golp_type__offset_ext__last__bit Int)

(declare-const dw1000__register_types__ec_golp_type__offset_ext__position Int)

;; dw1000__register_types__ec_golp_type__offset_ext__first__bit_axiom
  (assert
  (<= 0 dw1000__register_types__ec_golp_type__offset_ext__first__bit))

;; dw1000__register_types__ec_golp_type__offset_ext__last__bit_axiom
  (assert
  (< dw1000__register_types__ec_golp_type__offset_ext__first__bit dw1000__register_types__ec_golp_type__offset_ext__last__bit))

;; dw1000__register_types__ec_golp_type__offset_ext__position_axiom
  (assert (<= 0 dw1000__register_types__ec_golp_type__offset_ext__position))

(declare-const dw1000__register_types__ec_golp_type__reserved__first__bit Int)

(declare-const dw1000__register_types__ec_golp_type__reserved__last__bit Int)

(declare-const dw1000__register_types__ec_golp_type__reserved__position Int)

;; dw1000__register_types__ec_golp_type__reserved__first__bit_axiom
  (assert (<= 0 dw1000__register_types__ec_golp_type__reserved__first__bit))

;; dw1000__register_types__ec_golp_type__reserved__last__bit_axiom
  (assert
  (< dw1000__register_types__ec_golp_type__reserved__first__bit dw1000__register_types__ec_golp_type__reserved__last__bit))

;; dw1000__register_types__ec_golp_type__reserved__position_axiom
  (assert (<= 0 dw1000__register_types__ec_golp_type__reserved__position))

(declare-fun user_eq6 (us_rep us_rep) Bool)

(declare-const dummy6 us_rep)

(declare-datatypes ()
((ec_golp_type__ref (mk_ec_golp_type__ref (ec_golp_type__content us_rep)))))
(define-fun ec_golp_type__ref___projection ((a ec_golp_type__ref)) us_rep
  (ec_golp_type__content a))

(declare-datatypes ()
((register_type__ref (mk_register_type__ref (register_type__content us_rep)))))
(define-fun register_type__ref___73__projection ((a register_type__ref)) us_rep
  (register_type__content a))

(declare-const attr__ATTRIBUTE_ADDRESS Int)

(define-fun dynamic_property1 ((first_int Int) (last_int Int)
  (x Int)) Bool (and (<= first_int x) (<= x last_int)))

(declare-fun attr__ATTRIBUTE_IMAGE5 (Int) us_image)

(declare-fun attr__ATTRIBUTE_VALUE__pre_check5 (us_image) Bool)

(declare-fun attr__ATTRIBUTE_VALUE5 (us_image) Int)

(declare-fun user_eq7 (integer integer) Bool)

(declare-const dummy7 integer)

(declare-datatypes ()
((tregister_byte_arrayP1__ref
 (mk_tregister_byte_arrayP1__ref (tregister_byte_arrayP1__content integer)))))
(define-fun tregister_byte_arrayP1__ref___53__projection ((a tregister_byte_arrayP1__ref)) integer
  (tregister_byte_arrayP1__content a))

(declare-sort t1 0)

(declare-fun first2 (t1) integer)

(declare-fun last2 (t1) integer)

(declare-fun mk1 (Int Int) t1)

;; mk_def
  (assert
  (forall ((f Int) (l Int))
  (! (=> (in_range f)
     (=> (in_range l)
     (and (= (to_rep (first2 (mk1 f l))) f) (= (to_rep (last2 (mk1 f l))) l)))) :pattern (
  (mk1 f l)) )))

(define-fun dynamic_property2 ((range_first Int) (range_last Int) (low Int)
  (high Int)) Bool (and (in_range low)
                   (and (in_range high)
                   (=> (<= low high)
                   (and (dynamic_property1 range_first range_last low)
                   (dynamic_property1 range_first range_last high))))))

(declare-datatypes () ((us_t1 (mk___t1 (elts1 (Array Int bits_8))(rt1 t1)))))
(define-fun to_array1 ((a us_t1)) (Array Int bits_8) (elts1 a))

(define-fun of_array1 ((a (Array Int bits_8)) (f Int)
  (l Int)) us_t1 (mk___t1 a (mk1 f l)))

(define-fun first3 ((a us_t1)) Int (to_rep (first2 (rt1 a))))

(define-fun last3 ((a us_t1)) Int (to_rep (last2 (rt1 a))))

(define-fun length1 ((a us_t1)) Int (ite (<= (first3 a) (last3 a))
                                    (+ (- (last3 a) (first3 a)) 1) 0))

(declare-const value__size2 Int)

(declare-fun object__size2 ((Array Int bits_8)) Int)

(declare-const value__component__size1 Int)

(declare-fun object__component__size1 ((Array Int bits_8)) Int)

(declare-const value__alignment2 Int)

(declare-fun object__alignment2 ((Array Int bits_8)) Int)

;; value__size_axiom
  (assert (<= 0 value__size2))

;; object__size_axiom
  (assert (forall ((a (Array Int bits_8))) (<= 0 (object__size2 a))))

;; value__component__size_axiom
  (assert (<= 0 value__component__size1))

;; object__component__size_axiom
  (assert
  (forall ((a (Array Int bits_8))) (<= 0 (object__component__size1 a))))

;; value__alignment_axiom
  (assert (<= 0 value__alignment2))

;; object__alignment_axiom
  (assert (forall ((a (Array Int bits_8))) (<= 0 (object__alignment2 a))))

(define-fun bool_eq3 ((x us_t1)
  (y us_t1)) Bool (bool_eq (elts1 x) (to_rep (first2 (rt1 x)))
                  (to_rep (last2 (rt1 x))) (elts1 y)
                  (to_rep (first2 (rt1 y))) (to_rep (last2 (rt1 y)))))

(declare-fun user_eq8 (us_t1 us_t1) Bool)

(declare-const dummy8 us_t1)

(declare-datatypes ()
((register_byte_array__ref
 (mk_register_byte_array__ref (register_byte_array__content us_t1)))))
(define-fun register_byte_array__ref___53__projection ((a register_byte_array__ref)) us_t1
  (register_byte_array__content a))

(define-fun dynamic_invariant ((temp___expr_3761 us_t1)
  (temp___is_init_3758 Bool) (temp___skip_constant_3759 Bool)
  (temp___do_toplevel_3760 Bool)) Bool (=>
                                       (not
                                       (= temp___skip_constant_3759 true))
                                       (and (dynamic_property2 1 4
                                       (first3 temp___expr_3761)
                                       (last3 temp___expr_3761))
                                       (and (= (first3 temp___expr_3761) 1)
                                       (= (last3 temp___expr_3761) 4)))))

(declare-const reg_bytes__first integer)

(declare-const reg_bytes__last integer)

(declare-const attr__ATTRIBUTE_ADDRESS1 Int)

(define-fun dynamic_invariant1 ((temp___expr_33 Int) (temp___is_init_30 Bool)
  (temp___skip_constant_31 Bool)
  (temp___do_toplevel_32 Bool)) Bool (=>
                                     (or (= temp___is_init_30 true)
                                     (<= 0 2147483647)) (in_range1
                                     temp___expr_33)))

(define-fun dynamic_invariant2 ((temp___expr_15 Int) (temp___is_init_12 Bool)
  (temp___skip_constant_13 Bool)
  (temp___do_toplevel_14 Bool)) Bool (=>
                                     (or (= temp___is_init_12 true)
                                     (<= (- 2147483648) 2147483647))
                                     (in_range temp___expr_15)))

(define-fun dynamic_invariant3 ((temp___expr_245 (_ BitVec 8))
  (temp___is_init_242 Bool) (temp___skip_constant_243 Bool)
  (temp___do_toplevel_244 Bool)) Bool true)

(define-fun dynamic_invariant4 ((temp___expr_587 us_t)
  (temp___is_init_584 Bool) (temp___skip_constant_585 Bool)
  (temp___do_toplevel_586 Bool)) Bool (=>
                                      (not (= temp___skip_constant_585 true))
                                      (dynamic_property 0 2147483647
                                      (first1 temp___expr_587)
                                      (last1 temp___expr_587))))

;; H
  (assert
  (and (dynamic_property2 1 4 (to_rep reg_bytes__first)
  (to_rep reg_bytes__last))
  (and (= (to_rep reg_bytes__first) 1) (= (to_rep reg_bytes__last) 4))))

(assert
;; WP_parameter_def
 ;; File "dw1000-generic_ro_register_driver.adb", line 27, characters 0-0
  (not
  (< 0 (ite (<= (to_rep reg_bytes__first) (to_rep reg_bytes__last))
       (+ (- (to_rep reg_bytes__last) (to_rep reg_bytes__first)) 1) 0))))
(check-sat)
(exit)
